%chk=hydrogen_atom.chk
#P

test

0 1
H
H 1 1.0

