%chk=NO.chk
#P rohf

test

0 2
N
O 1 1.2

